; Portuguese Bank dataset (last_contact duration) column
; Nested column-slice encoding
; Column: last_contact duration

(set-logic ALL)

(declare-const D (Array Int (Array Int Int)))
(define-fun m () Int 100)
(define-fun n () Int 1)

(define-fun row1 ((x0 Int)) (Array Int Int)
  (store ((as const (Array Int Int)) 0) 0 x0)
)

(assert (= (select D 0) (row1 261)))
(assert (= (select D 1) (row1 151)))
(assert (= (select D 2) (row1 76)))
(assert (= (select D 3) (row1 92)))
(assert (= (select D 4) (row1 198)))
(assert (= (select D 5) (row1 139)))
(assert (= (select D 6) (row1 217)))
(assert (= (select D 7) (row1 380)))
(assert (= (select D 8) (row1 50)))
(assert (= (select D 9) (row1 55)))
(assert (= (select D 10) (row1 222)))
(assert (= (select D 11) (row1 137)))
(assert (= (select D 12) (row1 517)))
(assert (= (select D 13) (row1 71)))
(assert (= (select D 14) (row1 174)))
(assert (= (select D 15) (row1 353)))
(assert (= (select D 16) (row1 98)))
(assert (= (select D 17) (row1 38)))
(assert (= (select D 18) (row1 219)))
(assert (= (select D 19) (row1 54)))
(assert (= (select D 20) (row1 262)))
(assert (= (select D 21) (row1 164)))
(assert (= (select D 22) (row1 160)))
(assert (= (select D 23) (row1 342)))
(assert (= (select D 24) (row1 181)))
(assert (= (select D 25) (row1 172)))
(assert (= (select D 26) (row1 296)))
(assert (= (select D 27) (row1 127)))
(assert (= (select D 28) (row1 255)))
(assert (= (select D 29) (row1 348)))
(assert (= (select D 30) (row1 225)))
(assert (= (select D 31) (row1 230)))
(assert (= (select D 32) (row1 208)))
(assert (= (select D 33) (row1 226)))
(assert (= (select D 34) (row1 336)))
(assert (= (select D 35) (row1 242)))
(assert (= (select D 36) (row1 365)))
(assert (= (select D 37) (row1 1666)))
(assert (= (select D 38) (row1 577)))
(assert (= (select D 39) (row1 137)))
(assert (= (select D 40) (row1 160)))
(assert (= (select D 41) (row1 180)))
(assert (= (select D 42) (row1 22)))
(assert (= (select D 43) (row1 1492)))
(assert (= (select D 44) (row1 616)))
(assert (= (select D 45) (row1 242)))
(assert (= (select D 46) (row1 355)))
(assert (= (select D 47) (row1 225)))
(assert (= (select D 48) (row1 160)))
(assert (= (select D 49) (row1 363)))
(assert (= (select D 50) (row1 266)))
(assert (= (select D 51) (row1 253)))
(assert (= (select D 52) (row1 179)))
(assert (= (select D 53) (row1 787)))
(assert (= (select D 54) (row1 145)))
(assert (= (select D 55) (row1 174)))
(assert (= (select D 56) (row1 104)))
(assert (= (select D 57) (row1 13)))
(assert (= (select D 58) (row1 185)))
(assert (= (select D 59) (row1 1778)))
(assert (= (select D 60) (row1 138)))
(assert (= (select D 61) (row1 812)))
(assert (= (select D 62) (row1 164)))
(assert (= (select D 63) (row1 391)))
(assert (= (select D 64) (row1 357)))
(assert (= (select D 65) (row1 91)))
(assert (= (select D 66) (row1 528)))
(assert (= (select D 67) (row1 273)))
(assert (= (select D 68) (row1 158)))
(assert (= (select D 69) (row1 177)))
(assert (= (select D 70) (row1 258)))
(assert (= (select D 71) (row1 172)))
(assert (= (select D 72) (row1 154)))
(assert (= (select D 73) (row1 291)))
(assert (= (select D 74) (row1 181)))
(assert (= (select D 75) (row1 176)))
(assert (= (select D 76) (row1 211)))
(assert (= (select D 77) (row1 349)))
(assert (= (select D 78) (row1 272)))
(assert (= (select D 79) (row1 208)))
(assert (= (select D 80) (row1 193)))
(assert (= (select D 81) (row1 212)))
(assert (= (select D 82) (row1 20)))
(assert (= (select D 83) (row1 1042)))
(assert (= (select D 84) (row1 246)))
(assert (= (select D 85) (row1 529)))
(assert (= (select D 86) (row1 1467)))
(assert (= (select D 87) (row1 1389)))
(assert (= (select D 88) (row1 188)))
(assert (= (select D 89) (row1 180)))
(assert (= (select D 90) (row1 48)))
(assert (= (select D 91) (row1 213)))
(assert (= (select D 92) (row1 583)))
(assert (= (select D 93) (row1 221)))
(assert (= (select D 94) (row1 173)))
(assert (= (select D 95) (row1 426)))
(assert (= (select D 96) (row1 287)))
(assert (= (select D 97) (row1 101)))
(assert (= (select D 98) (row1 203)))
(assert (= (select D 99) (row1 197)))

; ======================================
; Grounding-style local range validity (m=100)
; Encoding: nested column slice
; Property: 0 <= duration < 5000
; ======================================

(assert
  (and
    (and (>= (select (select D 0) 0) 0) (< (select (select D 0) 0) 5000))
    (and (>= (select (select D 1) 0) 0) (< (select (select D 1) 0) 5000))
    (and (>= (select (select D 2) 0) 0) (< (select (select D 2) 0) 5000))
    (and (>= (select (select D 3) 0) 0) (< (select (select D 3) 0) 5000))
    (and (>= (select (select D 4) 0) 0) (< (select (select D 4) 0) 5000))
    (and (>= (select (select D 5) 0) 0) (< (select (select D 5) 0) 5000))
    (and (>= (select (select D 6) 0) 0) (< (select (select D 6) 0) 5000))
    (and (>= (select (select D 7) 0) 0) (< (select (select D 7) 0) 5000))
    (and (>= (select (select D 8) 0) 0) (< (select (select D 8) 0) 5000))
    (and (>= (select (select D 9) 0) 0) (< (select (select D 9) 0) 5000))
    (and (>= (select (select D 10) 0) 0) (< (select (select D 10) 0) 5000))
    (and (>= (select (select D 11) 0) 0) (< (select (select D 11) 0) 5000))
    (and (>= (select (select D 12) 0) 0) (< (select (select D 12) 0) 5000))
    (and (>= (select (select D 13) 0) 0) (< (select (select D 13) 0) 5000))
    (and (>= (select (select D 14) 0) 0) (< (select (select D 14) 0) 5000))
    (and (>= (select (select D 15) 0) 0) (< (select (select D 15) 0) 5000))
    (and (>= (select (select D 16) 0) 0) (< (select (select D 16) 0) 5000))
    (and (>= (select (select D 17) 0) 0) (< (select (select D 17) 0) 5000))
    (and (>= (select (select D 18) 0) 0) (< (select (select D 18) 0) 5000))
    (and (>= (select (select D 19) 0) 0) (< (select (select D 19) 0) 5000))
    (and (>= (select (select D 20) 0) 0) (< (select (select D 20) 0) 5000))
    (and (>= (select (select D 21) 0) 0) (< (select (select D 21) 0) 5000))
    (and (>= (select (select D 22) 0) 0) (< (select (select D 22) 0) 5000))
    (and (>= (select (select D 23) 0) 0) (< (select (select D 23) 0) 5000))
    (and (>= (select (select D 24) 0) 0) (< (select (select D 24) 0) 5000))
    (and (>= (select (select D 25) 0) 0) (< (select (select D 25) 0) 5000))
    (and (>= (select (select D 26) 0) 0) (< (select (select D 26) 0) 5000))
    (and (>= (select (select D 27) 0) 0) (< (select (select D 27) 0) 5000))
    (and (>= (select (select D 28) 0) 0) (< (select (select D 28) 0) 5000))
    (and (>= (select (select D 29) 0) 0) (< (select (select D 29) 0) 5000))
    (and (>= (select (select D 30) 0) 0) (< (select (select D 30) 0) 5000))
    (and (>= (select (select D 31) 0) 0) (< (select (select D 31) 0) 5000))
    (and (>= (select (select D 32) 0) 0) (< (select (select D 32) 0) 5000))
    (and (>= (select (select D 33) 0) 0) (< (select (select D 33) 0) 5000))
    (and (>= (select (select D 34) 0) 0) (< (select (select D 34) 0) 5000))
    (and (>= (select (select D 35) 0) 0) (< (select (select D 35) 0) 5000))
    (and (>= (select (select D 36) 0) 0) (< (select (select D 36) 0) 5000))
    (and (>= (select (select D 37) 0) 0) (< (select (select D 37) 0) 5000))
    (and (>= (select (select D 38) 0) 0) (< (select (select D 38) 0) 5000))
    (and (>= (select (select D 39) 0) 0) (< (select (select D 39) 0) 5000))
    (and (>= (select (select D 40) 0) 0) (< (select (select D 40) 0) 5000))
    (and (>= (select (select D 41) 0) 0) (< (select (select D 41) 0) 5000))
    (and (>= (select (select D 42) 0) 0) (< (select (select D 42) 0) 5000))
    (and (>= (select (select D 43) 0) 0) (< (select (select D 43) 0) 5000))
    (and (>= (select (select D 44) 0) 0) (< (select (select D 44) 0) 5000))
    (and (>= (select (select D 45) 0) 0) (< (select (select D 45) 0) 5000))
    (and (>= (select (select D 46) 0) 0) (< (select (select D 46) 0) 5000))
    (and (>= (select (select D 47) 0) 0) (< (select (select D 47) 0) 5000))
    (and (>= (select (select D 48) 0) 0) (< (select (select D 48) 0) 5000))
    (and (>= (select (select D 49) 0) 0) (< (select (select D 49) 0) 5000))
    (and (>= (select (select D 50) 0) 0) (< (select (select D 50) 0) 5000))
    (and (>= (select (select D 51) 0) 0) (< (select (select D 51) 0) 5000))
    (and (>= (select (select D 52) 0) 0) (< (select (select D 52) 0) 5000))
    (and (>= (select (select D 53) 0) 0) (< (select (select D 53) 0) 5000))
    (and (>= (select (select D 54) 0) 0) (< (select (select D 54) 0) 5000))
    (and (>= (select (select D 55) 0) 0) (< (select (select D 55) 0) 5000))
    (and (>= (select (select D 56) 0) 0) (< (select (select D 56) 0) 5000))
    (and (>= (select (select D 57) 0) 0) (< (select (select D 57) 0) 5000))
    (and (>= (select (select D 58) 0) 0) (< (select (select D 58) 0) 5000))
    (and (>= (select (select D 59) 0) 0) (< (select (select D 59) 0) 5000))
    (and (>= (select (select D 60) 0) 0) (< (select (select D 60) 0) 5000))
    (and (>= (select (select D 61) 0) 0) (< (select (select D 61) 0) 5000))
    (and (>= (select (select D 62) 0) 0) (< (select (select D 62) 0) 5000))
    (and (>= (select (select D 63) 0) 0) (< (select (select D 63) 0) 5000))
    (and (>= (select (select D 64) 0) 0) (< (select (select D 64) 0) 5000))
    (and (>= (select (select D 65) 0) 0) (< (select (select D 65) 0) 5000))
    (and (>= (select (select D 66) 0) 0) (< (select (select D 66) 0) 5000))
    (and (>= (select (select D 67) 0) 0) (< (select (select D 67) 0) 5000))
    (and (>= (select (select D 68) 0) 0) (< (select (select D 68) 0) 5000))
    (and (>= (select (select D 69) 0) 0) (< (select (select D 69) 0) 5000))
    (and (>= (select (select D 70) 0) 0) (< (select (select D 70) 0) 5000))
    (and (>= (select (select D 71) 0) 0) (< (select (select D 71) 0) 5000))
    (and (>= (select (select D 72) 0) 0) (< (select (select D 72) 0) 5000))
    (and (>= (select (select D 73) 0) 0) (< (select (select D 73) 0) 5000))
    (and (>= (select (select D 74) 0) 0) (< (select (select D 74) 0) 5000))
    (and (>= (select (select D 75) 0) 0) (< (select (select D 75) 0) 5000))
    (and (>= (select (select D 76) 0) 0) (< (select (select D 76) 0) 5000))
    (and (>= (select (select D 77) 0) 0) (< (select (select D 77) 0) 5000))
    (and (>= (select (select D 78) 0) 0) (< (select (select D 78) 0) 5000))
    (and (>= (select (select D 79) 0) 0) (< (select (select D 79) 0) 5000))
    (and (>= (select (select D 80) 0) 0) (< (select (select D 80) 0) 5000))
    (and (>= (select (select D 81) 0) 0) (< (select (select D 81) 0) 5000))
    (and (>= (select (select D 82) 0) 0) (< (select (select D 82) 0) 5000))
    (and (>= (select (select D 83) 0) 0) (< (select (select D 83) 0) 5000))
    (and (>= (select (select D 84) 0) 0) (< (select (select D 84) 0) 5000))
    (and (>= (select (select D 85) 0) 0) (< (select (select D 85) 0) 5000))
    (and (>= (select (select D 86) 0) 0) (< (select (select D 86) 0) 5000))
    (and (>= (select (select D 87) 0) 0) (< (select (select D 87) 0) 5000))
    (and (>= (select (select D 88) 0) 0) (< (select (select D 88) 0) 5000))
    (and (>= (select (select D 89) 0) 0) (< (select (select D 89) 0) 5000))
    (and (>= (select (select D 90) 0) 0) (< (select (select D 90) 0) 5000))
    (and (>= (select (select D 91) 0) 0) (< (select (select D 91) 0) 5000))
    (and (>= (select (select D 92) 0) 0) (< (select (select D 92) 0) 5000))
    (and (>= (select (select D 93) 0) 0) (< (select (select D 93) 0) 5000))
    (and (>= (select (select D 94) 0) 0) (< (select (select D 94) 0) 5000))
    (and (>= (select (select D 95) 0) 0) (< (select (select D 95) 0) 5000))
    (and (>= (select (select D 96) 0) 0) (< (select (select D 96) 0) 5000))
    (and (>= (select (select D 97) 0) 0) (< (select (select D 97) 0) 5000))
    (and (>= (select (select D 98) 0) 0) (< (select (select D 98) 0) 5000))
    (and (>= (select (select D 99) 0) 0) (< (select (select D 99) 0) 5000))
  )
)

(check-sat)
